%%%mzn-stat: initTime=0.01087264
%%%mzn-stat: objective=288
%%%mzn-stat: nodes=3324
%%%mzn-stat: restarts=0
%%%mzn-stat: peakDepth=610
%%%mzn-stat: solveTime=1.097005747
%%%mzn-stat: variables=1086
%%%mzn-stat: propagators=792
%%%mzn-stat: failures=1944
%%%mzn-stat: propagations=100479
%%%mzn-stat: nogoods=1944
%%%mzn-stat: AverageConflictSize=7.834876543209877
%%%mzn-stat: NumUnitNogoodsLearned=287
%%%mzn-stat: AverageLearnedNogoodLength=26.02777777777778
%%%mzn-stat: AverageBacktrackAmount=0
%%%mzn-stat: AverageLbd=7.565329218106996
%%%mzn-stat-end
maxleg = 288;
succ = array1d(1..100,[27, 29, 91, 44, 25, 47, 57, 74, 84, 60, 81, 2, 73, 96, 75, 34, 24, 39, 42, 36, 20, 67, 76, 99, 18, 11, 93, 45, 100, 94, 50, 88, 21, 35, 87, 70, 56, 92, 46, 38, 26, 48, 80, 68, 15, 52, 71, 13, 43, 3, 32, 30, 8, 86, 82, 16, 58, 53, 6, 83, 97, 40, 7, 22, 79, 5, 9, 95, 19, 78, 23, 4, 55, 49, 10, 51, 89, 28, 62, 14, 37, 54, 66, 69, 65, 31, 77, 17, 61, 12, 59, 63, 98, 41, 85, 33, 1, 90, 72, 64]);
% time elapsed: 7.08 s
----------
==========
% time elapsed: 7.08 s
%%%mzn-stat: initTime=0.01087264
%%%mzn-stat: objective=288
%%%mzn-stat: nodes=3324
%%%mzn-stat: restarts=0
%%%mzn-stat: peakDepth=610
%%%mzn-stat: solveTime=1.097019878
%%%mzn-stat: variables=1086
%%%mzn-stat: propagators=792
%%%mzn-stat: failures=1944
%%%mzn-stat: propagations=100479
%%%mzn-stat: nogoods=1944
%%%mzn-stat: AverageConflictSize=7.834876543209877
%%%mzn-stat: NumUnitNogoodsLearned=287
%%%mzn-stat: AverageLearnedNogoodLength=26.02777777777778
%%%mzn-stat: AverageBacktrackAmount=0
%%%mzn-stat: AverageLbd=7.565329218106996
%%%mzn-stat-end
